LengthSchedulingHorizon=1867;
nAttributes=2;
SetupCosts=[[0, 0], [1, 3], [3, 2]];
SetupTimes=[[0, 0], [0, 3], [3, 2]];
nMachines=5;
MinCap=[0, 0, 0, 0, 0];
MaxCap=[14, 18, 8, 8, 12];

initState=[2, 2, 1, 2, 1];
nShifts=5;
ShiftStartTimes = [[0, 0, 0, 0, 188], [0, 804, 862, 1095, 1663], [0, 0, 0, 917, 1251], [792, 878, 1184, 1592, 1626], [0, 0, 0, 701, 959]];
ShiftEndTimes = [[0, 0, 0, 0, 819], [0, 832, 932, 1619, 1808], [0, 0, 0, 1214, 1770], [873, 1164, 1472, 1620, 1775], [0, 0, 0, 851, 1477]];
nJobs=50;
EligibleMachines = [{1, 3}, {3}, {3, 4}, {3, 4}, {3, 4}, {5}, {1, 2}, {1, 4}, {3, 5}, {1}, {1, 2, 3}, {2, 5}, {2, 3, 5}, {2}, {4}, {4}, {2}, {2, 4}, {5}, {1, 2, 5}, {2, 3, 4, 5}, {3}, {1, 4}, {5}, {5}, {3}, {3, 5}, {1, 2, 3, 5}, {3}, {1, 2, 4}, {5}, {1, 4}, {2}, {2, 3, 4}, {2, 4}, {2, 4}, {5}, {3, 5}, {2, 3, 4, 5}, {2, 3}, {2, 4, 5}, {5}, {1, 3, 4}, {1}, {1}, {3, 5}, {3, 4}, {1}, {5}, {2, 3}];
EarliestStart=[3, 21, 3, 4, 30, 19, 10, 17, 28, 7, 17, 5, 4, 31, 9, 15, 24, 29, 22, 22, 18, 19, 15, 26, 10, 7, 6, 30, 21, 28, 25, 19, 14, 15, 21, 5, 15, 6, 19, 8, 29, 15, 10, 10, 17, 22, 26, 27, 30, 4];
LatestEnd=[15, 28, 13, 19, 32, 30, 12, 19, 35, 19, 22, 11, 14, 37, 22, 28, 34, 30, 35, 28, 32, 24, 28, 34, 14, 14, 18, 38, 24, 38, 26, 28, 32, 24, 37, 7, 18, 12, 25, 18, 41, 20, 20, 11, 23, 39, 42, 35, 39, 13];
MinTime=[9, 6, 8, 8, 2, 6, 2, 2, 7, 10, 3, 4, 8, 6, 7, 9, 7, 1, 9, 5, 9, 5, 10, 8, 4, 7, 9, 6, 2, 8, 1, 5, 10, 9, 10, 2, 3, 6, 5, 8, 9, 4, 9, 1, 6, 9, 9, 6, 5, 5];
MaxTime=[10, 8, 9, 8, 8, 8, 2, 2, 9, 10, 10, 8, 9, 9, 9, 10, 7, 10, 10, 8, 10, 7, 10, 8, 4, 9, 9, 6, 9, 8, 2, 8, 10, 9, 10, 2, 5, 7, 10, 10, 10, 7, 9, 3, 6, 10, 9, 9, 10, 6];
JobSize=[2, 1, 1, 2, 5, 1, 3, 2, 4, 4, 4, 5, 3, 2, 3, 5, 4, 5, 5, 3, 2, 1, 3, 2, 1, 3, 2, 3, 1, 4, 2, 1, 5, 2, 5, 1, 4, 2, 4, 1, 1, 2, 3, 3, 1, 1, 4, 2, 2, 4];
Attribute=[2, 2, 1, 1, 2, 2, 1, 1, 1, 2, 2, 1, 2, 2, 1, 2, 2, 1, 1, 2, 2, 1, 1, 1, 1, 2, 2, 2, 2, 1, 2, 1, 1, 1, 2, 1, 1, 2, 1, 1, 1, 2, 1, 2, 2, 2, 1, 2, 2, 1];

upper_bound_integer_objective=110250;
mult_factor_total_runtime=12;
mult_factor_finished_toolate=2100;
mult_factor_total_setuptimes=0;
mult_factor_total_setupcosts=7;
running_time_bound=309;
min_duration=1;
max_duration=10;
max_setup_time=3;
max_setup_cost=3;
